WARNING: for repeatability, setting FPU to use double precision
============================[ Problem Statistics ]=============================
|                                                                             |
|  Number of variables:       2330441                                         |
|  Number of clauses:        26923181                                         |
|  Parse time:                   3.44 s                                       |
|  Eliminated clauses:         117.50 Mb                                      |
|  Simplification time:        189.37 s                                       |
|                                                                             |
============================[ Search Statistics ]==============================
| Conflicts |          ORIGINAL         |          LEARNT          | Progress |
|           |    Vars  Clauses Literals |    Limit  Clauses Lit/Cl |          |
===============================================================================
|       100 |  776332  8780130 86149459 |  3219381      100    385 | 16.709 % |
|       250 |  776332  8780130 86149459 |  3541319      250    259 | 16.709 % |
|       475 |  776317  8780130 86149459 |  3895451      465    981 | 16.710 % |
|       812 |  776289  8780130 86149459 |  4284996      784   1342 | 16.711 % |
|      1318 |  776240  8780130 86149459 |  4713495     1254   1836 | 16.713 % |
|      2077 |  776211  8779727 86148653 |  5184845     1960   1825 | 16.714 % |
|      3216 |  776079  8779727 86148653 |  5703329     3020   2427 | 16.720 % |
|      4924 |  775968  8778759 86146717 |  6273662     4554   2633 | 16.725 % |
===============================================================================
restarts              : 31
conflicts             : 7333           (33 /sec)
decisions             : 2765362        (0.00 % random) (12419 /sec)
propagations          : 280170363      (1258191 /sec)
conflict literals     : 16082894       (14.08 % deleted)
Memory used           : 4785.00 MB
CPU time              : 222.677 s

UNSATISFIABLE
MiniSat a returnat un cod de eroare 20 pentru fișierul aaa3654cc92d80da84ecf5d18040c634-linked_list_swap_contents_safety_unwind62.cnf.
